1281909877465380618 -1 0
1173345643094910341 -2 0
h 3 -4 0
889141227141317625 -5 0
259199043689000288 -6 0
143629086567287046 -7 0
495669681573512098 -8 0
1110226562988268545 -9 0
1315834205398460082 -10 0
1365449166861464672 -11 0
h 12 13 0
1120163113850987579 -12 0
959465362690041861 -14 0
h -13 15 0
104504008466320285 -16 0
h -4 12 0
h -17 4 -18 0
h 1 -3 0
h 17 13 0
h 4 -13 -19 0
h 13 6 0
360519810507583064 -20 0
h -15 21 0
982166961881807945 -22 0
349065631651603359 -23 0
h 18 10 0
h 11 19 0
h -19 13 -4 0
1300766630646222370 -21 0
